60 300 32 166 284 279 78 17 242 28 104 16 73 203 181 189 15 228 58 290 232 96 196 56 219 73 78 163 189 153 68 99 264 151 264 247 181 93 15 122 120 119 137 244 73 70 133 88 49 242 129 281 37 77 88 7 149 165 169 37 70 288 